; Options: -in -smt2
(set-option :produce-unsat-assumptions true)

(declare-fun start!633 () Bool)

(assert start!633)

(declare-fun b!1817 () Bool)

(declare-fun res!1605 () Bool)

(declare-fun e!887 () Bool)

(assert (=> b!1817 (=> (not res!1605) (not e!887))))

(declare-datatypes ((array!65 0))(
  ( (array!66 (arr!29 (Array (_ BitVec 32) (_ FloatingPoint 11 53))) (size!29 (_ BitVec 32))) )
))
(declare-fun q!70 () array!65)

(declare-fun qInv!0 (array!65) Bool)

(assert (=> b!1817 (= res!1605 (qInv!0 q!70))))

(declare-fun res!1603 () Bool)

(assert (=> start!633 (=> (not res!1603) (not e!887))))

(declare-fun jz!42 () (_ BitVec 32))

(assert (=> start!633 (= res!1603 (and (bvsle #b00000000000000000000000000000010 jz!42) (bvslt jz!42 #b00000000000000000000000000010011)))))

(assert (=> start!633 e!887))

(assert (=> start!633 true))

(declare-fun array_inv!10 (array!65) Bool)

(assert (=> start!633 (array_inv!10 q!70)))

(declare-fun b!1818 () Bool)

(declare-datatypes ((Unit!98 0))(
  ( (Unit!99) )
))
(declare-datatypes ((array!67 0))(
  ( (array!68 (arr!30 (Array (_ BitVec 32) (_ BitVec 32))) (size!30 (_ BitVec 32))) )
))
(declare-datatypes ((tuple4!34 0))(
  ( (tuple4!35 (_1!60 Unit!98) (_2!60 (_ BitVec 32)) (_3!48 array!67) (_4!17 (_ BitVec 32))) )
))
(declare-fun lt!1198 () tuple4!34)

(declare-fun lt!1203 () (_ BitVec 32))

(declare-datatypes ((tuple3!62 0))(
  ( (tuple3!63 (_1!61 Unit!98) (_2!61 array!67) (_3!49 (_ BitVec 32))) )
))
(declare-fun e!889 () tuple3!62)

(declare-fun Unit!100 () Unit!98)

(assert (=> b!1818 (= e!889 (tuple3!63 Unit!100 (array!68 (store (arr!30 (_3!48 lt!1198)) (bvsub jz!42 #b00000000000000000000000000000001) (ite (= (_4!17 lt!1198) #b00000000000000000000000000000000) (bvsub #b00000001000000000000000000000000 lt!1203) (bvsub #b00000000111111111111111111111111 lt!1203))) (size!30 (_3!48 lt!1198))) (_4!17 lt!1198)))))

(declare-fun lt!1199 () (_ BitVec 32))

(assert (=> b!1818 (= lt!1199 #b00000000000000000000000000000000)))

(declare-fun c!315 () Bool)

(assert (=> b!1818 (= c!315 (bvslt lt!1199 (bvsub jz!42 #b00000000000000000000000000000001)))))

(declare-fun e!886 () tuple4!34)

(assert (=> b!1818 (= lt!1198 e!886)))

(assert (=> b!1818 (= lt!1203 (select (arr!30 (_3!48 lt!1198)) (bvsub jz!42 #b00000000000000000000000000000001)))))

(declare-fun b!1819 () Bool)

(declare-fun e!885 () Bool)

(declare-fun e!884 () Bool)

(assert (=> b!1819 (= e!885 e!884)))

(declare-fun res!1602 () Bool)

(assert (=> b!1819 (=> (not res!1602) (not e!884))))

(declare-fun lt!1202 () tuple3!62)

(assert (=> b!1819 (= res!1602 (and (bvsle #b00000000000000000000000000000000 (select (arr!30 (_2!61 lt!1202)) (bvsub jz!42 #b00000000000000000000000000000001))) (bvsle (select (arr!30 (_2!61 lt!1202)) (bvsub jz!42 #b00000000000000000000000000000001)) #b00000000100000000000000000000000)))))

(assert (=> b!1819 (= lt!1202 e!889)))

(declare-fun c!314 () Bool)

(declare-fun lt!1197 () Bool)

(assert (=> b!1819 (= c!314 lt!1197)))

(declare-fun lt!1204 () (_ BitVec 32))

(assert (=> b!1819 (= lt!1204 #b00000000000000000000000000000000)))

(declare-datatypes ((tuple4!36 0))(
  ( (tuple4!37 (_1!62 Unit!98) (_2!62 array!67) (_3!50 (_ BitVec 32)) (_4!18 (_ FloatingPoint 11 53))) )
))
(declare-fun lt!1200 () tuple4!36)

(assert (=> b!1819 (= lt!1197 (bvsge (select (arr!30 (_2!62 lt!1200)) (bvsub jz!42 #b00000000000000000000000000000001)) #b00000000100000000000000000000000))))

(declare-fun b!1820 () Bool)

(declare-fun res!1606 () Bool)

(assert (=> b!1820 (=> (not res!1606) (not e!884))))

(declare-fun qqInv!0 (array!65) Bool)

(assert (=> b!1820 (= res!1606 (qqInv!0 (array!66 ((as const (Array (_ BitVec 32) (_ FloatingPoint 11 53))) (fp #b0 #b00000000000 #b0000000000000000000000000000000000000000000000000000)) #b00000000000000000000000000010100)))))

(declare-fun lt!1205 () (_ FloatingPoint 11 53))

(declare-fun b!1821 () Bool)

(declare-fun e!890 () tuple4!36)

(declare-fun lt!1201 () array!67)

(declare-fun computeModuloWhile!0 ((_ BitVec 32) array!65 array!67 (_ BitVec 32) (_ FloatingPoint 11 53)) tuple4!36)

(assert (=> b!1821 (= e!890 (computeModuloWhile!0 jz!42 q!70 lt!1201 jz!42 lt!1205))))

(declare-fun b!1822 () Bool)

(declare-fun Unit!101 () Unit!98)

(assert (=> b!1822 (= e!890 (tuple4!37 Unit!101 lt!1201 jz!42 lt!1205))))

(declare-fun b!1823 () Bool)

(declare-fun Unit!102 () Unit!98)

(assert (=> b!1823 (= e!886 (tuple4!35 Unit!102 lt!1199 (_2!62 lt!1200) lt!1204))))

(declare-fun b!1824 () Bool)

(assert (=> b!1824 (= e!884 (and (or (not lt!1197) (not (= (_3!49 lt!1202) #b00000000000000000000000000000000)) (not (= (select (arr!30 (_2!61 lt!1202)) (bvsub jz!42 #b00000000000000000000000000000001)) #b00000000100000000000000000000000))) (bvsgt (select (arr!30 (_2!61 lt!1202)) (bvsub jz!42 #b00000000000000000000000000000001)) #b00000000011111111111111111111111)))))

(declare-fun b!1825 () Bool)

(declare-fun computeModuloWhile!1 ((_ BitVec 32) array!65 (_ BitVec 32) array!67 (_ BitVec 32)) tuple4!34)

(assert (=> b!1825 (= e!886 (computeModuloWhile!1 jz!42 q!70 lt!1199 (_2!62 lt!1200) lt!1204))))

(declare-fun b!1826 () Bool)

(declare-fun Unit!103 () Unit!98)

(assert (=> b!1826 (= e!889 (tuple3!63 Unit!103 (_2!62 lt!1200) lt!1204))))

(declare-fun b!1827 () Bool)

(assert (=> b!1827 (= e!887 e!885)))

(declare-fun res!1604 () Bool)

(assert (=> b!1827 (=> (not res!1604) (not e!885))))

(declare-fun lt!1206 () (_ FloatingPoint 11 53))

(assert (=> b!1827 (= res!1604 (and (fp.leq (fp #b0 #b00000000000 #b0000000000000000000000000000000000000000000000000000) lt!1206) (fp.lt lt!1206 (fp #b0 #b10000000010 #b0000000000000000000000000000000000000000000000000000))))))

(assert (=> b!1827 (= lt!1206 (fp.sub roundNearestTiesToEven (_4!18 lt!1200) (fp.mul roundNearestTiesToEven (fp #b0 #b10000000010 #b0000000000000000000000000000000000000000000000000000) ((_ to_fp 11 53) roundNearestTiesToEven (ite (fp.isNaN (fp.mul roundNearestTiesToEven (_4!18 lt!1200) (fp #b0 #b01111111100 #b0000000000000000000000000000000000000000000000000000))) #b0000000000000000000000000000000000000000000000000000000000000000 (ite (fp.gt (fp.mul roundNearestTiesToEven (_4!18 lt!1200) (fp #b0 #b01111111100 #b0000000000000000000000000000000000000000000000000000)) ((_ to_fp 11 53) roundTowardZero #b0111111111111111111111111111111111111111111111111111111111111111)) #b0111111111111111111111111111111111111111111111111111111111111111 (ite (fp.lt (fp.mul roundNearestTiesToEven (_4!18 lt!1200) (fp #b0 #b01111111100 #b0000000000000000000000000000000000000000000000000000)) ((_ to_fp 11 53) roundTowardZero #b1000000000000000000000000000000000000000000000000000000000000000)) #b1000000000000000000000000000000000000000000000000000000000000000 ((_ fp.to_sbv 64) roundTowardZero (fp.mul roundNearestTiesToEven (_4!18 lt!1200) (fp #b0 #b01111111100 #b0000000000000000000000000000000000000000000000000000))))))))))))

(assert (=> b!1827 (= lt!1200 e!890)))

(declare-fun c!316 () Bool)

(assert (=> b!1827 (= c!316 (bvsgt jz!42 #b00000000000000000000000000000000))))

(assert (=> b!1827 (= lt!1205 (select (arr!29 q!70) jz!42))))

(assert (=> b!1827 (= lt!1201 (array!68 ((as const (Array (_ BitVec 32) (_ BitVec 32))) #b00000000000000000000000000000000) #b00000000000000000000000000010100))))

(assert (= (and start!633 res!1603) b!1817))

(assert (= (and b!1817 res!1605) b!1827))

(assert (= (and b!1827 c!316) b!1821))

(assert (= (and b!1827 (not c!316)) b!1822))

(assert (= (and b!1827 res!1604) b!1819))

(assert (= (and b!1819 c!314) b!1818))

(assert (= (and b!1819 (not c!314)) b!1826))

(assert (= (and b!1818 c!315) b!1825))

(assert (= (and b!1818 (not c!315)) b!1823))

(assert (= (and b!1819 res!1602) b!1820))

(assert (= (and b!1820 res!1606) b!1824))

(declare-fun m!3345 () Bool)

(assert (=> b!1817 m!3345))

(declare-fun m!3347 () Bool)

(assert (=> b!1819 m!3347))

(declare-fun m!3349 () Bool)

(assert (=> b!1819 m!3349))

(declare-fun m!3351 () Bool)

(assert (=> b!1821 m!3351))

(assert (=> b!1824 m!3347))

(declare-fun m!3353 () Bool)

(assert (=> start!633 m!3353))

(declare-fun m!3355 () Bool)

(assert (=> b!1820 m!3355))

(declare-fun m!3357 () Bool)

(assert (=> b!1827 m!3357))

(declare-fun m!3359 () Bool)

(assert (=> b!1818 m!3359))

(declare-fun m!3361 () Bool)

(assert (=> b!1818 m!3361))

(declare-fun m!3363 () Bool)

(assert (=> b!1825 m!3363))

(check-sat (not b!1825) (not b!1817) (not start!633) (not b!1821) (not b!1820))
(check-sat)
(get-model)

(declare-fun b!1848 () Bool)

(declare-fun res!1620 () Bool)

(declare-fun e!902 () Bool)

(assert (=> b!1848 (=> (not res!1620) (not e!902))))

(declare-fun lt!1229 () tuple4!34)

(assert (=> b!1848 (= res!1620 (or (= (_4!17 lt!1229) #b00000000000000000000000000000000) (= (_4!17 lt!1229) #b00000000000000000000000000000001)))))

(declare-fun b!1849 () Bool)

(assert (=> b!1849 (= e!902 (bvsge (_2!60 lt!1229) (bvsub jz!42 #b00000000000000000000000000000001)))))

(assert (=> b!1849 (or (= (bvand jz!42 #b10000000000000000000000000000000) #b00000000000000000000000000000000) (= (bvand jz!42 #b10000000000000000000000000000000) (bvand (bvsub jz!42 #b00000000000000000000000000000001) #b10000000000000000000000000000000)))))

(declare-fun b!1850 () Bool)

(declare-fun res!1623 () Bool)

(declare-fun e!899 () Bool)

(assert (=> b!1850 (=> (not res!1623) (not e!899))))

(declare-fun iqInv!0 (array!67) Bool)

(assert (=> b!1850 (= res!1623 (iqInv!0 (_2!62 lt!1200)))))

(declare-fun d!1493 () Bool)

(assert (=> d!1493 e!902))

(declare-fun res!1622 () Bool)

(assert (=> d!1493 (=> (not res!1622) (not e!902))))

(assert (=> d!1493 (= res!1622 (and (or (bvsgt #b00000000000000000000000000000000 (_2!60 lt!1229)) (= (bvand jz!42 #b10000000000000000000000000000000) #b00000000000000000000000000000000) (= (bvand jz!42 #b10000000000000000000000000000000) (bvand (bvsub jz!42 #b00000000000000000000000000000001) #b10000000000000000000000000000000))) (bvsle #b00000000000000000000000000000000 (_2!60 lt!1229)) (bvsle (_2!60 lt!1229) (bvsub jz!42 #b00000000000000000000000000000001))))))

(declare-fun e!901 () tuple4!34)

(assert (=> d!1493 (= lt!1229 e!901)))

(declare-fun c!321 () Bool)

(declare-fun lt!1233 () (_ BitVec 32))

(assert (=> d!1493 (= c!321 (bvslt lt!1233 (bvsub jz!42 #b00000000000000000000000000000001)))))

(assert (=> d!1493 (= lt!1233 (bvadd lt!1199 #b00000000000000000000000000000001))))

(declare-fun lt!1232 () (_ BitVec 32))

(declare-fun lt!1230 () (_ BitVec 32))

(assert (=> d!1493 (= lt!1232 (ite (and (= lt!1204 #b00000000000000000000000000000000) (not (= lt!1230 #b00000000000000000000000000000000))) #b00000000000000000000000000000001 lt!1204))))

(declare-fun lt!1225 () array!67)

(assert (=> d!1493 (= lt!1225 (array!68 (store (arr!30 (_2!62 lt!1200)) lt!1199 (ite (= lt!1204 #b00000000000000000000000000000000) (ite (not (= lt!1230 #b00000000000000000000000000000000)) (bvsub #b00000001000000000000000000000000 lt!1230) #b00000000000000000000000000000000) (bvsub #b00000000111111111111111111111111 lt!1230))) (size!30 (_2!62 lt!1200))))))

(assert (=> d!1493 (= lt!1230 (select (arr!30 (_2!62 lt!1200)) lt!1199))))

(assert (=> d!1493 e!899))

(declare-fun res!1621 () Bool)

(assert (=> d!1493 (=> (not res!1621) (not e!899))))

(assert (=> d!1493 (= res!1621 (and (bvsle #b00000000000000000000000000000000 lt!1199) (bvsle lt!1199 (bvsub jz!42 #b00000000000000000000000000000001))))))

(declare-fun lt!1231 () tuple4!36)

(declare-fun e!900 () tuple4!36)

(assert (=> d!1493 (= lt!1231 e!900)))

(declare-fun c!322 () Bool)

(assert (=> d!1493 (= c!322 (bvsgt jz!42 #b00000000000000000000000000000000))))

(declare-fun lt!1227 () (_ FloatingPoint 11 53))

(assert (=> d!1493 (= lt!1227 (select (arr!29 q!70) jz!42))))

(declare-fun lt!1226 () array!67)

(assert (=> d!1493 (= lt!1226 (array!68 ((as const (Array (_ BitVec 32) (_ BitVec 32))) #b00000000000000000000000000000000) #b00000000000000000000000000010100))))

(assert (=> d!1493 (= (computeModuloWhile!1 jz!42 q!70 lt!1199 (_2!62 lt!1200) lt!1204) lt!1229)))

(declare-fun b!1851 () Bool)

(declare-fun res!1619 () Bool)

(assert (=> b!1851 (=> (not res!1619) (not e!902))))

(assert (=> b!1851 (= res!1619 (iqInv!0 (_3!48 lt!1229)))))

(declare-fun b!1852 () Bool)

(declare-fun res!1624 () Bool)

(assert (=> b!1852 (=> (not res!1624) (not e!902))))

(declare-fun lt!1228 () (_ BitVec 32))

(assert (=> b!1852 (= res!1624 (bvsge (select (arr!30 (_3!48 lt!1229)) lt!1228) #b00000000100000000000000000000000))))

(assert (=> b!1852 (and (bvsge lt!1228 #b00000000000000000000000000000000) (bvslt lt!1228 (size!30 (_3!48 lt!1229))))))

(assert (=> b!1852 (= lt!1228 (bvsub jz!42 #b00000000000000000000000000000001))))

(assert (=> b!1852 (or (= (bvand jz!42 #b10000000000000000000000000000000) #b00000000000000000000000000000000) (= (bvand jz!42 #b10000000000000000000000000000000) (bvand (bvsub jz!42 #b00000000000000000000000000000001) #b10000000000000000000000000000000)))))

(declare-fun b!1853 () Bool)

(assert (=> b!1853 (= e!901 (computeModuloWhile!1 jz!42 q!70 lt!1233 lt!1225 lt!1232))))

(declare-fun b!1854 () Bool)

(declare-fun Unit!104 () Unit!98)

(assert (=> b!1854 (= e!901 (tuple4!35 Unit!104 lt!1233 lt!1225 lt!1232))))

(declare-fun b!1855 () Bool)

(assert (=> b!1855 (= e!900 (computeModuloWhile!0 jz!42 q!70 lt!1226 jz!42 lt!1227))))

(declare-fun b!1856 () Bool)

(declare-fun Unit!105 () Unit!98)

(assert (=> b!1856 (= e!900 (tuple4!37 Unit!105 lt!1226 jz!42 lt!1227))))

(declare-fun b!1857 () Bool)

(assert (=> b!1857 (= e!899 (and (bvsge (select (arr!30 (_2!62 lt!1200)) (bvsub jz!42 #b00000000000000000000000000000001)) #b00000000100000000000000000000000) (or (= lt!1204 #b00000000000000000000000000000000) (= lt!1204 #b00000000000000000000000000000001)) (bvslt lt!1199 (bvsub jz!42 #b00000000000000000000000000000001))))))

(assert (= (and d!1493 c!322) b!1855))

(assert (= (and d!1493 (not c!322)) b!1856))

(assert (= (and d!1493 res!1621) b!1850))

(assert (= (and b!1850 res!1623) b!1857))

(assert (= (and d!1493 c!321) b!1853))

(assert (= (and d!1493 (not c!321)) b!1854))

(assert (= (and d!1493 res!1622) b!1851))

(assert (= (and b!1851 res!1619) b!1852))

(assert (= (and b!1852 res!1624) b!1848))

(assert (= (and b!1848 res!1620) b!1849))

(assert (=> b!1857 m!3349))

(declare-fun m!3365 () Bool)

(assert (=> b!1853 m!3365))

(declare-fun m!3367 () Bool)

(assert (=> d!1493 m!3367))

(declare-fun m!3369 () Bool)

(assert (=> d!1493 m!3369))

(assert (=> d!1493 m!3357))

(declare-fun m!3371 () Bool)

(assert (=> b!1852 m!3371))

(declare-fun m!3373 () Bool)

(assert (=> b!1850 m!3373))

(declare-fun m!3375 () Bool)

(assert (=> b!1851 m!3375))

(declare-fun m!3377 () Bool)

(assert (=> b!1855 m!3377))

(assert (=> b!1825 d!1493))

(declare-fun d!1495 () Bool)

(declare-fun res!1627 () Bool)

(declare-fun e!905 () Bool)

(assert (=> d!1495 (=> (not res!1627) (not e!905))))

(assert (=> d!1495 (= res!1627 (= (size!29 q!70) #b00000000000000000000000000010100))))

(assert (=> d!1495 (= (qInv!0 q!70) e!905)))

(declare-fun b!1860 () Bool)

(declare-fun lambda!67 () Int)

(declare-fun all20!0 (array!65 Int) Bool)

(assert (=> b!1860 (= e!905 (all20!0 q!70 lambda!67))))

(assert (= (and d!1495 res!1627) b!1860))

(declare-fun m!3379 () Bool)

(assert (=> b!1860 m!3379))

(assert (=> b!1817 d!1495))

(declare-fun b!1873 () Bool)

(declare-fun res!1639 () Bool)

(declare-fun e!912 () Bool)

(assert (=> b!1873 (=> (not res!1639) (not e!912))))

(assert (=> b!1873 (= res!1639 (iqInv!0 lt!1201))))

(declare-fun b!1874 () Bool)

(assert (=> b!1874 (= e!912 (bvsgt jz!42 #b00000000000000000000000000000000))))

(declare-fun d!1497 () Bool)

(declare-fun e!914 () Bool)

(assert (=> d!1497 e!914))

(declare-fun res!1637 () Bool)

(assert (=> d!1497 (=> (not res!1637) (not e!914))))

(declare-fun lt!1247 () tuple4!36)

(assert (=> d!1497 (= res!1637 (and true true (bvsle #b00000000000000000000000000000000 (_3!50 lt!1247)) (bvsle (_3!50 lt!1247) jz!42) (fp.leq (fp #b0 #b00000000000 #b0000000000000000000000000000000000000000000000000000) (_4!18 lt!1247)) (fp.leq (_4!18 lt!1247) (fp #b0 #b10000110001 #b0100000000000000000000010011111111111111111111111100))))))

(declare-fun e!913 () tuple4!36)

(assert (=> d!1497 (= lt!1247 e!913)))

(declare-fun c!325 () Bool)

(declare-fun lt!1246 () (_ BitVec 32))

(assert (=> d!1497 (= c!325 (bvsgt lt!1246 #b00000000000000000000000000000000))))

(assert (=> d!1497 (= lt!1246 (bvsub jz!42 #b00000000000000000000000000000001))))

(declare-fun lt!1245 () (_ FloatingPoint 11 53))

(declare-fun lt!1244 () (_ FloatingPoint 11 53))

(assert (=> d!1497 (= lt!1245 (fp.add roundNearestTiesToEven (select (arr!29 q!70) (bvsub jz!42 #b00000000000000000000000000000001)) lt!1244))))

(declare-fun lt!1248 () array!67)

(assert (=> d!1497 (= lt!1248 (array!68 (store (arr!30 lt!1201) (bvsub jz!42 jz!42) (ite (fp.isNaN (fp.sub roundNearestTiesToEven lt!1205 (fp.mul roundNearestTiesToEven (fp #b0 #b10000010111 #b0000000000000000000000000000000000000000000000000000) lt!1244))) #b00000000000000000000000000000000 (ite (fp.gt (fp.sub roundNearestTiesToEven lt!1205 (fp.mul roundNearestTiesToEven (fp #b0 #b10000010111 #b0000000000000000000000000000000000000000000000000000) lt!1244)) ((_ to_fp 11 53) roundTowardZero #b01111111111111111111111111111111)) #b01111111111111111111111111111111 (ite (fp.lt (fp.sub roundNearestTiesToEven lt!1205 (fp.mul roundNearestTiesToEven (fp #b0 #b10000010111 #b0000000000000000000000000000000000000000000000000000) lt!1244)) ((_ to_fp 11 53) roundTowardZero #b10000000000000000000000000000000)) #b10000000000000000000000000000000 ((_ fp.to_sbv 32) roundTowardZero (fp.sub roundNearestTiesToEven lt!1205 (fp.mul roundNearestTiesToEven (fp #b0 #b10000010111 #b0000000000000000000000000000000000000000000000000000) lt!1244))))))) (size!30 lt!1201)))))

(assert (=> d!1497 (= lt!1244 ((_ to_fp 11 53) roundNearestTiesToEven (ite (fp.isNaN (fp.mul roundNearestTiesToEven (fp #b0 #b01111100111 #b0000000000000000000000000000000000000000000000000000) lt!1205)) #b00000000000000000000000000000000 (ite (fp.gt (fp.mul roundNearestTiesToEven (fp #b0 #b01111100111 #b0000000000000000000000000000000000000000000000000000) lt!1205) ((_ to_fp 11 53) roundTowardZero #b01111111111111111111111111111111)) #b01111111111111111111111111111111 (ite (fp.lt (fp.mul roundNearestTiesToEven (fp #b0 #b01111100111 #b0000000000000000000000000000000000000000000000000000) lt!1205) ((_ to_fp 11 53) roundTowardZero #b10000000000000000000000000000000)) #b10000000000000000000000000000000 ((_ fp.to_sbv 32) roundTowardZero (fp.mul roundNearestTiesToEven (fp #b0 #b01111100111 #b0000000000000000000000000000000000000000000000000000) lt!1205)))))))))

(assert (=> d!1497 e!912))

(declare-fun res!1636 () Bool)

(assert (=> d!1497 (=> (not res!1636) (not e!912))))

(assert (=> d!1497 (= res!1636 (and (bvsle #b00000000000000000000000000000000 jz!42) (bvsle jz!42 jz!42) (fp.leq (fp #b0 #b00000000000 #b0000000000000000000000000000000000000000000000000000) lt!1205) (fp.leq lt!1205 (fp #b0 #b10000110001 #b0100000000000000000000010011111111111111111111111100))))))

(assert (=> d!1497 (= (computeModuloWhile!0 jz!42 q!70 lt!1201 jz!42 lt!1205) lt!1247)))

(declare-fun b!1875 () Bool)

(declare-fun Unit!106 () Unit!98)

(assert (=> b!1875 (= e!913 (tuple4!37 Unit!106 lt!1248 lt!1246 lt!1245))))

(declare-fun b!1876 () Bool)

(assert (=> b!1876 (= e!914 (bvsle (_3!50 lt!1247) #b00000000000000000000000000000000))))

(declare-fun b!1877 () Bool)

(assert (=> b!1877 (= e!913 (computeModuloWhile!0 jz!42 q!70 lt!1248 lt!1246 lt!1245))))

(declare-fun b!1878 () Bool)

(declare-fun res!1638 () Bool)

(assert (=> b!1878 (=> (not res!1638) (not e!914))))

(assert (=> b!1878 (= res!1638 (iqInv!0 (_2!62 lt!1247)))))

(assert (= (and d!1497 res!1636) b!1873))

(assert (= (and b!1873 res!1639) b!1874))

(assert (= (and d!1497 c!325) b!1877))

(assert (= (and d!1497 (not c!325)) b!1875))

(assert (= (and d!1497 res!1637) b!1878))

(assert (= (and b!1878 res!1638) b!1876))

(declare-fun m!3381 () Bool)

(assert (=> b!1873 m!3381))

(declare-fun m!3383 () Bool)

(assert (=> d!1497 m!3383))

(declare-fun m!3385 () Bool)

(assert (=> d!1497 m!3385))

(declare-fun m!3387 () Bool)

(assert (=> b!1877 m!3387))

(declare-fun m!3389 () Bool)

(assert (=> b!1878 m!3389))

(assert (=> b!1821 d!1497))

(declare-fun d!1499 () Bool)

(assert (=> d!1499 (= (qqInv!0 (array!66 ((as const (Array (_ BitVec 32) (_ FloatingPoint 11 53))) (fp #b0 #b00000000000 #b0000000000000000000000000000000000000000000000000000)) #b00000000000000000000000000010100)) (and (= (size!29 (array!66 ((as const (Array (_ BitVec 32) (_ FloatingPoint 11 53))) (fp #b0 #b00000000000 #b0000000000000000000000000000000000000000000000000000)) #b00000000000000000000000000010100)) #b00000000000000000000000000010100) (fp.leq (fp #b0 #b00000000000 #b0000000000000000000000000000000000000000000000000000) (select (arr!29 (array!66 ((as const (Array (_ BitVec 32) (_ FloatingPoint 11 53))) (fp #b0 #b00000000000 #b0000000000000000000000000000000000000000000000000000)) #b00000000000000000000000000010100)) #b00000000000000000000000000000000)) (fp.leq (select (arr!29 (array!66 ((as const (Array (_ BitVec 32) (_ FloatingPoint 11 53))) (fp #b0 #b00000000000 #b0000000000000000000000000000000000000000000000000000)) #b00000000000000000000000000010100)) #b00000000000000000000000000000000) (fp #b0 #b01111111101 #b1111111111111111111111000000000000000000000000000000)) (fp.leq (fp #b0 #b00000000000 #b0000000000000000000000000000000000000000000000000000) (select (arr!29 (array!66 ((as const (Array (_ BitVec 32) (_ FloatingPoint 11 53))) (fp #b0 #b00000000000 #b0000000000000000000000000000000000000000000000000000)) #b00000000000000000000000000010100)) #b00000000000000000000000000000001)) (fp.leq (select (arr!29 (array!66 ((as const (Array (_ BitVec 32) (_ FloatingPoint 11 53))) (fp #b0 #b00000000000 #b0000000000000000000000000000000000000000000000000000)) #b00000000000000000000000000010100)) #b00000000000000000000000000000001) (fp #b0 #b01111100110 #b1111111111111111111111100000000000000000000000000000)) (fp.leq (fp #b0 #b00000000000 #b0000000000000000000000000000000000000000000000000000) (select (arr!29 (array!66 ((as const (Array (_ BitVec 32) (_ FloatingPoint 11 53))) (fp #b0 #b00000000000 #b0000000000000000000000000000000000000000000000000000)) #b00000000000000000000000000010100)) #b00000000000000000000000000000010)) (fp.leq (select (arr!29 (array!66 ((as const (Array (_ BitVec 32) (_ FloatingPoint 11 53))) (fp #b0 #b00000000000 #b0000000000000000000000000000000000000000000000000000)) #b00000000000000000000000000010100)) #b00000000000000000000000000000010) (fp #b0 #b01111001110 #b1111111111111111111111100000000000000000000000000000)) (fp.leq (fp #b0 #b00000000000 #b0000000000000000000000000000000000000000000000000000) (select (arr!29 (array!66 ((as const (Array (_ BitVec 32) (_ FloatingPoint 11 53))) (fp #b0 #b00000000000 #b0000000000000000000000000000000000000000000000000000)) #b00000000000000000000000000010100)) #b00000000000000000000000000000011)) (fp.leq (select (arr!29 (array!66 ((as const (Array (_ BitVec 32) (_ FloatingPoint 11 53))) (fp #b0 #b00000000000 #b0000000000000000000000000000000000000000000000000000)) #b00000000000000000000000000010100)) #b00000000000000000000000000000011) (fp #b0 #b01110110110 #b1111111111111111111111100000000000000000000000000000)) (fp.leq (fp #b0 #b00000000000 #b0000000000000000000000000000000000000000000000000000) (select (arr!29 (array!66 ((as const (Array (_ BitVec 32) (_ FloatingPoint 11 53))) (fp #b0 #b00000000000 #b0000000000000000000000000000000000000000000000000000)) #b00000000000000000000000000010100)) #b00000000000000000000000000000100)) (fp.leq (select (arr!29 (array!66 ((as const (Array (_ BitVec 32) (_ FloatingPoint 11 53))) (fp #b0 #b00000000000 #b0000000000000000000000000000000000000000000000000000)) #b00000000000000000000000000010100)) #b00000000000000000000000000000100) (fp #b0 #b01110011110 #b1111111111111111111111100000000000000000000000000000)) (fp.leq (fp #b0 #b00000000000 #b0000000000000000000000000000000000000000000000000000) (select (arr!29 (array!66 ((as const (Array (_ BitVec 32) (_ FloatingPoint 11 53))) (fp #b0 #b00000000000 #b0000000000000000000000000000000000000000000000000000)) #b00000000000000000000000000010100)) #b00000000000000000000000000000101)) (fp.leq (select (arr!29 (array!66 ((as const (Array (_ BitVec 32) (_ FloatingPoint 11 53))) (fp #b0 #b00000000000 #b0000000000000000000000000000000000000000000000000000)) #b00000000000000000000000000010100)) #b00000000000000000000000000000101) (fp #b0 #b01110000110 #b1111111111111111111111100000000000000000000000000000)) (fp.leq (fp #b0 #b00000000000 #b0000000000000000000000000000000000000000000000000000) (select (arr!29 (array!66 ((as const (Array (_ BitVec 32) (_ FloatingPoint 11 53))) (fp #b0 #b00000000000 #b0000000000000000000000000000000000000000000000000000)) #b00000000000000000000000000010100)) #b00000000000000000000000000000110)) (fp.leq (select (arr!29 (array!66 ((as const (Array (_ BitVec 32) (_ FloatingPoint 11 53))) (fp #b0 #b00000000000 #b0000000000000000000000000000000000000000000000000000)) #b00000000000000000000000000010100)) #b00000000000000000000000000000110) (fp #b0 #b01101101110 #b1111111111111111111111100000000000000000000000000000)) (fp.leq (fp #b0 #b00000000000 #b0000000000000000000000000000000000000000000000000000) (select (arr!29 (array!66 ((as const (Array (_ BitVec 32) (_ FloatingPoint 11 53))) (fp #b0 #b00000000000 #b0000000000000000000000000000000000000000000000000000)) #b00000000000000000000000000010100)) #b00000000000000000000000000000111)) (fp.leq (select (arr!29 (array!66 ((as const (Array (_ BitVec 32) (_ FloatingPoint 11 53))) (fp #b0 #b00000000000 #b0000000000000000000000000000000000000000000000000000)) #b00000000000000000000000000010100)) #b00000000000000000000000000000111) (fp #b0 #b01101010110 #b1111111111111111111111100000000000000000000000000000)) (fp.leq (fp #b0 #b00000000000 #b0000000000000000000000000000000000000000000000000000) (select (arr!29 (array!66 ((as const (Array (_ BitVec 32) (_ FloatingPoint 11 53))) (fp #b0 #b00000000000 #b0000000000000000000000000000000000000000000000000000)) #b00000000000000000000000000010100)) #b00000000000000000000000000001000)) (fp.leq (select (arr!29 (array!66 ((as const (Array (_ BitVec 32) (_ FloatingPoint 11 53))) (fp #b0 #b00000000000 #b0000000000000000000000000000000000000000000000000000)) #b00000000000000000000000000010100)) #b00000000000000000000000000001000) (fp #b0 #b01100111110 #b1111111111111111111111100000000000000000000000000000)) (fp.leq (fp #b0 #b00000000000 #b0000000000000000000000000000000000000000000000000000) (select (arr!29 (array!66 ((as const (Array (_ BitVec 32) (_ FloatingPoint 11 53))) (fp #b0 #b00000000000 #b0000000000000000000000000000000000000000000000000000)) #b00000000000000000000000000010100)) #b00000000000000000000000000001001)) (fp.leq (select (arr!29 (array!66 ((as const (Array (_ BitVec 32) (_ FloatingPoint 11 53))) (fp #b0 #b00000000000 #b0000000000000000000000000000000000000000000000000000)) #b00000000000000000000000000010100)) #b00000000000000000000000000001001) (fp #b0 #b01100100110 #b1111111111111111111111100000000000000000000000000000)) (fp.leq (fp #b0 #b00000000000 #b0000000000000000000000000000000000000000000000000000) (select (arr!29 (array!66 ((as const (Array (_ BitVec 32) (_ FloatingPoint 11 53))) (fp #b0 #b00000000000 #b0000000000000000000000000000000000000000000000000000)) #b00000000000000000000000000010100)) #b00000000000000000000000000001010)) (fp.leq (select (arr!29 (array!66 ((as const (Array (_ BitVec 32) (_ FloatingPoint 11 53))) (fp #b0 #b00000000000 #b0000000000000000000000000000000000000000000000000000)) #b00000000000000000000000000010100)) #b00000000000000000000000000001010) (fp #b0 #b01100001110 #b1111111111111111111111100000000000000000000000000000)) (fp.leq (fp #b0 #b00000000000 #b0000000000000000000000000000000000000000000000000000) (select (arr!29 (array!66 ((as const (Array (_ BitVec 32) (_ FloatingPoint 11 53))) (fp #b0 #b00000000000 #b0000000000000000000000000000000000000000000000000000)) #b00000000000000000000000000010100)) #b00000000000000000000000000001011)) (fp.leq (select (arr!29 (array!66 ((as const (Array (_ BitVec 32) (_ FloatingPoint 11 53))) (fp #b0 #b00000000000 #b0000000000000000000000000000000000000000000000000000)) #b00000000000000000000000000010100)) #b00000000000000000000000000001011) (fp #b0 #b01011110110 #b1111111111111111111111100000000000000000000000000000)) (fp.leq (fp #b0 #b00000000000 #b0000000000000000000000000000000000000000000000000000) (select (arr!29 (array!66 ((as const (Array (_ BitVec 32) (_ FloatingPoint 11 53))) (fp #b0 #b00000000000 #b0000000000000000000000000000000000000000000000000000)) #b00000000000000000000000000010100)) #b00000000000000000000000000001100)) (fp.leq (select (arr!29 (array!66 ((as const (Array (_ BitVec 32) (_ FloatingPoint 11 53))) (fp #b0 #b00000000000 #b0000000000000000000000000000000000000000000000000000)) #b00000000000000000000000000010100)) #b00000000000000000000000000001100) (fp #b0 #b01011011110 #b1111111111111111111111100000000000000000000000000000)) (fp.leq (fp #b0 #b00000000000 #b0000000000000000000000000000000000000000000000000000) (select (arr!29 (array!66 ((as const (Array (_ BitVec 32) (_ FloatingPoint 11 53))) (fp #b0 #b00000000000 #b0000000000000000000000000000000000000000000000000000)) #b00000000000000000000000000010100)) #b00000000000000000000000000001101)) (fp.leq (select (arr!29 (array!66 ((as const (Array (_ BitVec 32) (_ FloatingPoint 11 53))) (fp #b0 #b00000000000 #b0000000000000000000000000000000000000000000000000000)) #b00000000000000000000000000010100)) #b00000000000000000000000000001101) (fp #b0 #b01011000110 #b1111111111111111111111100000000000000000000000000000)) (fp.leq (fp #b0 #b00000000000 #b0000000000000000000000000000000000000000000000000000) (select (arr!29 (array!66 ((as const (Array (_ BitVec 32) (_ FloatingPoint 11 53))) (fp #b0 #b00000000000 #b0000000000000000000000000000000000000000000000000000)) #b00000000000000000000000000010100)) #b00000000000000000000000000001110)) (fp.leq (select (arr!29 (array!66 ((as const (Array (_ BitVec 32) (_ FloatingPoint 11 53))) (fp #b0 #b00000000000 #b0000000000000000000000000000000000000000000000000000)) #b00000000000000000000000000010100)) #b00000000000000000000000000001110) (fp #b0 #b01010101110 #b1111111111111111111111100000000000000000000000000000)) (fp.leq (fp #b0 #b00000000000 #b0000000000000000000000000000000000000000000000000000) (select (arr!29 (array!66 ((as const (Array (_ BitVec 32) (_ FloatingPoint 11 53))) (fp #b0 #b00000000000 #b0000000000000000000000000000000000000000000000000000)) #b00000000000000000000000000010100)) #b00000000000000000000000000001111)) (fp.leq (select (arr!29 (array!66 ((as const (Array (_ BitVec 32) (_ FloatingPoint 11 53))) (fp #b0 #b00000000000 #b0000000000000000000000000000000000000000000000000000)) #b00000000000000000000000000010100)) #b00000000000000000000000000001111) (fp #b0 #b01010010110 #b1111111111111111111111100000000000000000000000000000)) (fp.leq (fp #b0 #b00000000000 #b0000000000000000000000000000000000000000000000000000) (select (arr!29 (array!66 ((as const (Array (_ BitVec 32) (_ FloatingPoint 11 53))) (fp #b0 #b00000000000 #b0000000000000000000000000000000000000000000000000000)) #b00000000000000000000000000010100)) #b00000000000000000000000000010000)) (fp.leq (select (arr!29 (array!66 ((as const (Array (_ BitVec 32) (_ FloatingPoint 11 53))) (fp #b0 #b00000000000 #b0000000000000000000000000000000000000000000000000000)) #b00000000000000000000000000010100)) #b00000000000000000000000000010000) (fp #b0 #b01001111110 #b1111111111111111111111100000000000000000000000000000)) (fp.leq (fp #b0 #b00000000000 #b0000000000000000000000000000000000000000000000000000) (select (arr!29 (array!66 ((as const (Array (_ BitVec 32) (_ FloatingPoint 11 53))) (fp #b0 #b00000000000 #b0000000000000000000000000000000000000000000000000000)) #b00000000000000000000000000010100)) #b00000000000000000000000000010001)) (fp.leq (select (arr!29 (array!66 ((as const (Array (_ BitVec 32) (_ FloatingPoint 11 53))) (fp #b0 #b00000000000 #b0000000000000000000000000000000000000000000000000000)) #b00000000000000000000000000010100)) #b00000000000000000000000000010001) (fp #b0 #b01001100110 #b1111111111111111111111100000000000000000000000000000)) (fp.leq (fp #b0 #b00000000000 #b0000000000000000000000000000000000000000000000000000) (select (arr!29 (array!66 ((as const (Array (_ BitVec 32) (_ FloatingPoint 11 53))) (fp #b0 #b00000000000 #b0000000000000000000000000000000000000000000000000000)) #b00000000000000000000000000010100)) #b00000000000000000000000000010010)) (fp.leq (select (arr!29 (array!66 ((as const (Array (_ BitVec 32) (_ FloatingPoint 11 53))) (fp #b0 #b00000000000 #b0000000000000000000000000000000000000000000000000000)) #b00000000000000000000000000010100)) #b00000000000000000000000000010010) (fp #b0 #b01001001110 #b1111111111111111111111100000000000000000000000000000)) (fp.leq (fp #b0 #b00000000000 #b0000000000000000000000000000000000000000000000000000) (select (arr!29 (array!66 ((as const (Array (_ BitVec 32) (_ FloatingPoint 11 53))) (fp #b0 #b00000000000 #b0000000000000000000000000000000000000000000000000000)) #b00000000000000000000000000010100)) #b00000000000000000000000000010011)) (fp.leq (select (arr!29 (array!66 ((as const (Array (_ BitVec 32) (_ FloatingPoint 11 53))) (fp #b0 #b00000000000 #b0000000000000000000000000000000000000000000000000000)) #b00000000000000000000000000010100)) #b00000000000000000000000000010011) (fp #b0 #b01000110110 #b1111111111111111111111100000000000000000000000000000))))))

(declare-fun bs!761 () Bool)

(assert (= bs!761 d!1499))

(declare-fun m!3391 () Bool)

(assert (=> bs!761 m!3391))

(declare-fun m!3393 () Bool)

(assert (=> bs!761 m!3393))

(declare-fun m!3395 () Bool)

(assert (=> bs!761 m!3395))

(declare-fun m!3397 () Bool)

(assert (=> bs!761 m!3397))

(declare-fun m!3399 () Bool)

(assert (=> bs!761 m!3399))

(declare-fun m!3401 () Bool)

(assert (=> bs!761 m!3401))

(declare-fun m!3403 () Bool)

(assert (=> bs!761 m!3403))

(declare-fun m!3405 () Bool)

(assert (=> bs!761 m!3405))

(declare-fun m!3407 () Bool)

(assert (=> bs!761 m!3407))

(declare-fun m!3409 () Bool)

(assert (=> bs!761 m!3409))

(declare-fun m!3411 () Bool)

(assert (=> bs!761 m!3411))

(declare-fun m!3413 () Bool)

(assert (=> bs!761 m!3413))

(declare-fun m!3415 () Bool)

(assert (=> bs!761 m!3415))

(declare-fun m!3417 () Bool)

(assert (=> bs!761 m!3417))

(declare-fun m!3419 () Bool)

(assert (=> bs!761 m!3419))

(declare-fun m!3421 () Bool)

(assert (=> bs!761 m!3421))

(declare-fun m!3423 () Bool)

(assert (=> bs!761 m!3423))

(declare-fun m!3425 () Bool)

(assert (=> bs!761 m!3425))

(declare-fun m!3427 () Bool)

(assert (=> bs!761 m!3427))

(declare-fun m!3429 () Bool)

(assert (=> bs!761 m!3429))

(assert (=> b!1820 d!1499))

(declare-fun d!1501 () Bool)

(assert (=> d!1501 (= (array_inv!10 q!70) (bvsge (size!29 q!70) #b00000000000000000000000000000000))))

(assert (=> start!633 d!1501))

(check-sat (not b!1850) (not b!1853) (not b!1855) (not b!1851) (not b!1878) (not b!1877) (not b!1860) (not b!1873))
(check-sat)
